c File written by GRAPH:Fri Apr 17 07:25:58 2015
p edge 139 2282

e 1 9
e 1 15
e 1 22
e 1 23
e 1 24
e 1 29
e 1 30
e 1 31
e 1 32
e 1 33
e 1 34
e 1 36
e 1 42
e 1 49
e 1 54
e 1 56
e 1 57
e 1 58
e 1 65
e 1 67
e 1 69
e 1 81
e 1 82
e 1 89
e 1 97
e 1 100
e 1 101
e 1 102
e 1 106
e 1 121
e 1 128
e 1 131
e 1 137
e 2 6
e 2 7
e 2 8
e 2 10
e 2 15
e 2 16
e 2 20
e 2 23
e 2 24
e 2 26
e 2 27
e 2 33
e 2 40
e 2 41
e 2 55
e 2 56
e 2 67
e 2 70
e 2 72
e 2 75
e 2 76
e 2 77
e 2 78
e 2 81
e 2 83
e 2 84
e 2 85
e 2 86
e 2 87
e 2 93
e 2 100
e 2 101
e 2 102
e 2 103
e 2 104
e 2 107
e 2 108
e 2 109
e 2 110
e 2 111
e 2 112
e 2 113
e 2 115
e 2 134
e 2 135
e 2 136
e 3 4
e 3 12
e 3 13
e 3 16
e 3 17
e 3 22
e 3 25
e 3 26
e 3 32
e 3 38
e 3 44
e 3 48
e 3 55
e 3 58
e 3 73
e 3 77
e 3 79
e 3 82
e 3 83
e 3 101
e 3 110
e 3 111
e 3 116
e 3 117
e 3 123
e 3 124
e 3 137
e 4 14
e 4 22
e 4 23
e 4 25
e 4 31
e 4 32
e 4 35
e 4 36
e 4 39
e 4 40
e 4 46
e 4 51
e 4 52
e 4 58
e 4 62
e 4 67
e 4 75
e 4 76
e 4 78
e 4 79
e 4 82
e 4 90
e 4 102
e 4 108
e 4 109
e 4 112
e 4 114
e 4 115
e 4 122
e 4 131
e 4 133
e 4 136
e 4 137
e 4 139
e 5 10
e 5 18
e 5 19
e 5 22
e 5 30
e 5 40
e 5 45
e 5 49
e 5 52
e 5 53
e 5 64
e 5 75
e 5 76
e 5 78
e 5 89
e 5 102
e 5 108
e 5 109
e 5 112
e 5 119
e 5 127
e 5 128
e 5 136
e 6 10
e 6 17
e 6 22
e 6 24
e 6 30
e 6 40
e 6 48
e 6 49
e 6 53
e 6 66
e 6 75
e 6 76
e 6 78
e 6 89
e 6 91
e 6 98
e 6 108
e 6 109
e 6 112
e 6 128
e 6 135
e 7 10
e 7 17
e 7 22
e 7 24
e 7 30
e 7 40
e 7 48
e 7 49
e 7 53
e 7 66
e 7 75
e 7 76
e 7 78
e 7 89
e 7 91
e 7 98
e 7 108
e 7 109
e 7 112
e 7 128
e 7 135
e 8 9
e 8 12
e 8 13
e 8 17
e 8 27
e 8 32
e 8 38
e 8 39
e 8 42
e 8 48
e 8 51
e 8 59
e 8 63
e 8 73
e 8 74
e 8 90
e 8 91
e 8 97
e 8 101
e 8 103
e 8 116
e 8 117
e 8 119
e 8 120
e 9 20
e 9 21
e 9 25
e 9 30
e 9 33
e 9 34
e 9 37
e 9 41
e 9 42
e 9 45
e 9 51
e 9 56
e 9 65
e 9 66
e 9 68
e 9 80
e 9 84
e 9 86
e 9 87
e 9 88
e 9 89
e 9 90
e 9 91
e 9 97
e 9 98
e 9 99
e 9 101
e 9 113
e 9 128
e 10 18
e 10 19
e 10 22
e 10 24
e 10 28
e 10 40
e 10 44
e 10 45
e 10 49
e 10 56
e 10 72
e 10 74
e 10 76
e 10 78
e 10 89
e 10 96
e 10 98
e 10 108
e 10 109
e 10 112
e 10 119
e 10 126
e 10 127
e 10 135
e 11 18
e 11 19
e 11 22
e 11 24
e 11 28
e 11 29
e 11 30
e 11 40
e 11 44
e 11 49
e 11 56
e 11 66
e 11 72
e 11 75
e 11 76
e 11 78
e 11 91
e 11 95
e 11 98
e 11 108
e 11 109
e 11 112
e 11 128
e 11 135
e 12 30
e 12 34
e 12 37
e 12 38
e 12 40
e 12 48
e 12 55
e 12 57
e 12 68
e 12 70
e 12 75
e 12 76
e 12 77
e 12 78
e 12 80
e 12 91
e 12 100
e 12 102
e 12 104
e 12 108
e 12 109
e 12 110
e 12 111
e 12 112
e 12 114
e 12 128
e 12 129
e 12 130
e 13 16
e 13 30
e 13 34
e 13 37
e 13 38
e 13 40
e 13 48
e 13 55
e 13 57
e 13 68
e 13 70
e 13 75
e 13 76
e 13 77
e 13 78
e 13 80
e 13 83
e 13 90
e 13 91
e 13 100
e 13 102
e 13 104
e 13 108
e 13 109
e 13 110
e 13 111
e 13 112
e 13 114
e 13 126
e 13 128
e 13 129
e 13 130
e 14 27
e 14 40
e 14 42
e 14 45
e 14 50
e 14 55
e 14 56
e 14 64
e 14 67
e 14 71
e 14 75
e 14 76
e 14 78
e 14 79
e 14 92
e 14 93
e 14 94
e 14 96
e 14 108
e 14 109
e 14 112
e 14 118
e 14 119
e 14 126
e 15 16
e 15 20
e 15 21
e 15 22
e 15 25
e 15 26
e 15 33
e 15 40
e 15 41
e 15 42
e 15 43
e 15 45
e 15 46
e 15 49
e 15 51
e 15 56
e 15 60
e 15 65
e 15 66
e 15 75
e 15 76
e 15 77
e 15 78
e 15 79
e 15 81
e 15 83
e 15 84
e 15 85
e 15 86
e 15 87
e 15 88
e 15 92
e 15 93
e 15 94
e 15 95
e 15 96
e 15 97
e 15 98
e 15 99
e 15 108
e 15 109
e 15 110
e 15 111
e 15 112
e 15 113
e 15 116
e 15 117
e 15 118
e 15 120
e 15 123
e 15 124
e 15 125
e 15 138
e 16 18
e 16 20
e 16 21
e 16 22
e 16 31
e 16 33
e 16 35
e 16 40
e 16 41
e 16 46
e 16 49
e 16 52
e 16 53
e 16 55
e 16 59
e 16 61
e 16 64
e 16 65
e 16 66
e 16 69
e 16 73
e 16 75
e 16 76
e 16 77
e 16 78
e 16 81
e 16 84
e 16 85
e 16 86
e 16 87
e 16 88
e 16 89
e 16 93
e 16 95
e 16 99
e 16 101
e 16 106
e 16 108
e 16 109
e 16 110
e 16 111
e 16 112
e 16 113
e 16 114
e 16 117
e 16 119
e 16 121
e 16 122
e 16 132
e 16 133
e 16 134
e 17 29
e 17 32
e 17 37
e 17 45
e 17 54
e 17 55
e 17 59
e 17 61
e 17 66
e 17 68
e 17 80
e 17 95
e 17 101
e 17 103
e 17 114
e 17 121
e 17 131
e 18 22
e 18 28
e 18 31
e 18 40
e 18 49
e 18 54
e 18 61
e 18 71
e 18 74
e 18 75
e 18 76
e 18 77
e 18 78
e 18 83
e 18 97
e 18 100
e 18 103
e 18 108
e 18 109
e 18 110
e 18 111
e 18 112
e 18 121
e 18 129
e 18 132
e 19 28
e 19 31
e 19 49
e 19 54
e 19 61
e 19 67
e 19 103
e 19 121
e 19 129
e 19 130
e 19 131
e 19 132
e 20 21
e 20 22
e 20 25
e 20 38
e 20 40
e 20 41
e 20 43
e 20 44
e 20 45
e 20 46
e 20 49
e 20 51
e 20 55
e 20 59
e 20 66
e 20 75
e 20 76
e 20 77
e 20 78
e 20 79
e 20 81
e 20 83
e 20 84
e 20 85
e 20 86
e 20 87
e 20 88
e 20 90
e 20 91
e 20 95
e 20 96
e 20 98
e 20 99
e 20 108
e 20 109
e 20 110
e 20 111
e 20 112
e 20 113
e 20 116
e 20 117
e 20 120
e 20 123
e 20 124
e 20 125
e 20 126
e 20 138
e 21 22
e 21 25
e 21 38
e 21 40
e 21 41
e 21 44
e 21 45
e 21 46
e 21 49
e 21 51
e 21 55
e 21 57
e 21 59
e 21 66
e 21 75
e 21 76
e 21 77
e 21 78
e 21 81
e 21 83
e 21 84
e 21 85
e 21 86
e 21 87
e 21 88
e 21 90
e 21 91
e 21 95
e 21 96
e 21 98
e 21 108
e 21 109
e 21 110
e 21 111
e 21 112
e 21 113
e 21 116
e 21 117
e 21 120
e 21 123
e 21 124
e 21 125
e 21 126
e 21 138
e 22 25
e 22 28
e 22 32
e 22 40
e 22 41
e 22 46
e 22 47
e 22 49
e 22 55
e 22 58
e 22 64
e 22 66
e 22 69
e 22 75
e 22 76
e 22 77
e 22 78
e 22 81
e 22 83
e 22 84
e 22 85
e 22 86
e 22 87
e 22 88
e 22 95
e 22 98
e 22 102
e 22 106
e 22 108
e 22 109
e 22 110
e 22 111
e 22 112
e 22 113
e 22 114
e 22 120
e 22 123
e 22 124
e 22 125
e 22 132
e 22 138
e 22 139
e 23 25
e 23 26
e 23 27
e 23 29
e 23 30
e 23 36
e 23 43
e 23 44
e 23 46
e 23 50
e 23 54
e 23 56
e 23 58
e 23 62
e 23 63
e 23 82
e 23 89
e 23 90
e 23 100
e 23 102
e 23 114
e 23 126
e 23 128
e 23 135
e 23 137
e 23 138
e 24 25
e 24 29
e 24 31
e 24 32
e 24 34
e 24 44
e 24 46
e 24 51
e 24 52
e 24 58
e 24 63
e 24 72
e 24 90
e 24 103
e 24 115
e 24 123
e 24 124
e 24 136
e 24 138
e 25 30
e 25 31
e 25 32
e 25 33
e 25 41
e 25 49
e 25 50
e 25 51
e 25 54
e 25 63
e 25 65
e 25 81
e 25 84
e 25 85
e 25 86
e 25 87
e 25 88
e 25 90
e 25 91
e 25 92
e 25 94
e 25 96
e 25 97
e 25 100
e 25 101
e 25 106
e 25 107
e 25 113
e 25 114
e 25 118
e 25 121
e 25 126
e 25 128
e 25 131
e 25 134
e 25 135
e 26 31
e 26 44
e 26 50
e 26 60
e 26 67
e 26 69
e 26 73
e 26 81
e 26 84
e 26 85
e 26 103
e 26 113
e 26 114
e 26 129
e 26 133
e 26 134
e 27 30
e 27 32
e 27 47
e 27 59
e 27 61
e 27 69
e 27 70
e 27 71
e 27 73
e 27 90
e 27 91
e 27 101
e 27 103
e 27 104
e 27 106
e 27 128
e 27 129
e 27 130
e 27 131
e 28 40
e 28 45
e 28 49
e 28 52
e 28 53
e 28 64
e 28 74
e 28 75
e 28 76
e 28 77
e 28 78
e 28 79
e 28 82
e 28 102
e 28 108
e 28 109
e 28 110
e 28 111
e 28 112
e 28 127
e 28 136
e 29 45
e 29 48
e 29 49
e 29 64
e 29 74
e 29 89
e 29 96
e 29 98
e 29 100
e 29 126
e 29 130
e 29 133
e 29 135
e 30 34
e 30 37
e 30 40
e 30 49
e 30 53
e 30 58
e 30 68
e 30 72
e 30 76
e 30 79
e 30 80
e 30 97
e 30 108
e 30 109
e 30 139
e 31 44
e 31 51
e 31 58
e 31 83
e 31 131
e 31 137
e 32 35
e 32 36
e 32 38
e 32 42
e 32 43
e 32 48
e 32 52
e 32 58
e 32 62
e 32 71
e 32 75
e 32 77
e 32 79
e 32 82
e 32 103
e 32 110
e 32 111
e 32 114
e 32 122
e 32 136
e 32 139
e 33 40
e 33 42
e 33 44
e 33 46
e 33 47
e 33 55
e 33 56
e 33 59
e 33 73
e 33 75
e 33 76
e 33 77
e 33 78
e 33 81
e 33 83
e 33 93
e 33 97
e 33 108
e 33 109
e 33 110
e 33 111
e 33 112
e 33 116
e 33 117
e 33 120
e 33 123
e 33 124
e 33 125
e 33 138
e 34 50
e 34 54
e 34 56
e 34 60
e 34 61
e 34 63
e 34 64
e 34 70
e 34 89
e 34 91
e 34 93
e 34 95
e 34 97
e 34 101
e 34 104
e 34 105
e 34 116
e 34 120
e 34 128
e 34 132
e 35 39
e 35 40
e 35 52
e 35 63
e 35 66
e 35 69
e 35 73
e 35 75
e 35 77
e 35 79
e 35 82
e 35 83
e 35 95
e 35 98
e 35 101
e 35 106
e 35 110
e 35 111
e 35 116
e 35 121
e 35 133
e 36 53
e 36 63
e 36 69
e 36 71
e 36 74
e 36 90
e 36 102
e 36 129
e 36 133
e 36 136
e 37 38
e 37 39
e 37 42
e 37 48
e 37 54
e 37 59
e 37 60
e 37 63
e 37 64
e 37 70
e 37 73
e 37 74
e 37 91
e 37 97
e 37 103
e 37 104
e 37 116
e 37 117
e 37 119
e 37 120
e 37 127
e 37 128
e 37 132
e 38 41
e 38 45
e 38 54
e 38 57
e 38 61
e 38 68
e 38 80
e 38 86
e 38 87
e 38 88
e 38 95
e 38 101
e 38 114
e 38 121
e 38 131
e 38 132
e 39 46
e 39 51
e 39 52
e 39 68
e 39 75
e 39 90
e 39 114
e 39 115
e 39 119
e 39 122
e 39 123
e 39 124
e 39 138
e 40 41
e 40 47
e 40 49
e 40 51
e 40 55
e 40 59
e 40 63
e 40 65
e 40 69
e 40 75
e 40 76
e 40 77
e 40 78
e 40 81
e 40 83
e 40 84
e 40 85
e 40 86
e 40 87
e 40 88
e 40 89
e 40 90
e 40 93
e 40 95
e 40 99
e 40 106
e 40 108
e 40 110
e 40 111
e 40 112
e 40 113
e 40 116
e 40 117
e 40 121
e 40 128
e 40 132
e 40 134
e 41 43
e 41 44
e 41 45
e 41 46
e 41 49
e 41 51
e 41 55
e 41 59
e 41 66
e 41 75
e 41 76
e 41 77
e 41 78
e 41 79
e 41 81
e 41 83
e 41 84
e 41 85
e 41 87
e 41 88
e 41 90
e 41 91
e 41 95
e 41 96
e 41 98
e 41 99
e 41 108
e 41 109
e 41 110
e 41 111
e 41 112
e 41 113
e 41 116
e 41 117
e 41 120
e 41 123
e 41 124
e 41 125
e 41 126
e 41 138
e 42 45
e 42 56
e 42 64
e 42 66
e 42 68
e 42 71
e 42 74
e 42 81
e 42 84
e 42 85
e 42 89
e 42 90
e 42 99
e 42 103
e 42 113
e 42 131
e 42 132
e 42 134
e 43 67
e 43 73
e 43 81
e 43 84
e 43 85
e 43 86
e 43 92
e 43 94
e 43 95
e 43 103
e 43 113
e 43 114
e 43 118
e 43 130
e 43 133
e 43 134
e 44 45
e 44 65
e 44 67
e 44 72
e 44 84
e 44 85
e 44 86
e 44 87
e 44 88
e 44 92
e 44 93
e 44 94
e 44 96
e 44 99
e 44 113
e 44 114
e 44 118
e 44 130
e 44 132
e 44 133
e 44 134
e 45 47
e 45 50
e 45 54
e 45 56
e 45 57
e 45 58
e 45 61
e 45 64
e 45 66
e 45 70
e 45 72
e 45 79
e 45 81
e 45 84
e 45 85
e 45 86
e 45 87
e 45 88
e 45 89
e 45 93
e 45 97
e 45 99
e 45 104
e 45 105
e 45 107
e 45 113
e 45 121
e 45 133
e 45 134
e 45 135
e 46 50
e 46 61
e 46 63
e 46 65
e 46 66
e 46 67
e 46 71
e 46 74
e 46 79
e 46 80
e 46 81
e 46 82
e 46 83
e 46 84
e 46 85
e 46 86
e 46 87
e 46 88
e 46 95
e 46 98
e 46 99
e 46 101
e 46 105
e 46 107
e 46 113
e 46 114
e 46 115
e 46 123
e 46 125
e 46 131
e 46 134
e 46 135
e 46 137
e 47 50
e 47 55
e 47 59
e 47 60
e 47 65
e 47 66
e 47 71
e 47 76
e 47 78
e 47 79
e 47 93
e 47 94
e 47 95
e 47 97
e 47 98
e 47 100
e 47 108
e 47 109
e 47 112
e 47 119
e 47 130
e 48 67
e 48 68
e 48 80
e 48 101
e 48 114
e 48 129
e 48 130
e 48 131
e 49 55
e 49 64
e 49 66
e 49 69
e 49 75
e 49 76
e 49 77
e 49 78
e 49 81
e 49 83
e 49 84
e 49 85
e 49 86
e 49 87
e 49 88
e 49 90
e 49 98
e 49 102
e 49 106
e 49 108
e 49 109
e 49 110
e 49 111
e 49 112
e 49 113
e 49 114
e 49 120
e 49 123
e 49 124
e 49 125
e 49 128
e 49 132
e 49 138
e 49 139
e 50 56
e 50 64
e 50 73
e 50 74
e 50 80
e 50 92
e 50 93
e 50 94
e 50 97
e 50 100
e 50 102
e 50 118
e 50 120
e 50 123
e 50 124
e 50 125
e 50 126
e 50 129
e 50 135
e 50 138
e 51 52
e 51 55
e 51 58
e 51 59
e 51 60
e 51 63
e 51 67
e 51 70
e 51 73
e 51 81
e 51 84
e 51 85
e 51 86
e 51 87
e 51 88
e 51 96
e 51 97
e 51 98
e 51 99
e 51 104
e 51 105
e 51 107
e 51 113
e 51 115
e 51 126
e 51 132
e 51 134
e 51 136
e 51 139
e 52 62
e 52 63
e 52 67
e 52 71
e 52 72
e 52 74
e 52 77
e 52 80
e 52 83
e 52 90
e 52 101
e 52 110
e 52 111
e 52 122
e 52 131
e 52 133
e 52 137
e 52 139
e 53 63
e 53 64
e 53 71
e 53 72
e 53 74
e 53 75
e 53 83
e 53 91
e 53 102
e 53 128
e 53 133
e 54 56
e 54 61
e 54 64
e 54 68
e 54 74
e 54 80
e 54 89
e 54 92
e 54 93
e 54 94
e 54 100
e 54 102
e 54 116
e 54 117
e 54 118
e 54 120
e 54 123
e 54 124
e 54 125
e 54 126
e 54 130
e 54 132
e 55 59
e 55 65
e 55 67
e 55 75
e 55 76
e 55 77
e 55 78
e 55 83
e 55 84
e 55 85
e 55 86
e 55 87
e 55 88
e 55 93
e 55 99
e 55 101
e 55 102
e 55 103
e 55 108
e 55 109
e 55 110
e 55 111
e 55 112
e 55 113
e 55 114
e 55 115
e 55 131
e 55 133
e 55 134
e 55 135
e 55 136
e 56 73
e 56 74
e 56 77
e 56 80
e 56 81
e 56 84
e 56 85
e 56 97
e 56 105
e 56 107
e 56 110
e 56 113
e 56 116
e 56 117
e 56 120
e 57 64
e 57 71
e 57 74
e 57 87
e 57 88
e 57 89
e 57 92
e 57 94
e 57 98
e 57 103
e 57 114
e 57 118
e 57 130
e 57 131
e 57 135
e 58 63
e 58 69
e 58 80
e 58 82
e 58 90
e 58 91
e 58 92
e 58 94
e 58 101
e 58 102
e 58 106
e 58 114
e 58 118
e 58 126
e 58 128
e 58 131
e 59 64
e 59 65
e 59 68
e 59 75
e 59 76
e 59 77
e 59 78
e 59 83
e 59 84
e 59 85
e 59 86
e 59 87
e 59 88
e 59 99
e 59 108
e 59 109
e 59 110
e 59 111
e 59 112
e 59 113
e 59 117
e 59 134
e 60 64
e 60 68
e 60 70
e 60 74
e 60 80
e 60 81
e 60 102
e 60 104
e 60 105
e 60 116
e 60 117
e 61 69
e 61 75
e 61 77
e 61 80
e 61 83
e 61 93
e 61 106
e 61 107
e 61 110
e 61 111
e 61 116
e 61 117
e 61 120
e 61 123
e 61 124
e 61 125
e 61 132
e 61 138
e 62 63
e 62 69
e 62 71
e 62 74
e 62 76
e 62 78
e 62 90
e 62 101
e 62 102
e 62 108
e 62 109
e 62 112
e 62 115
e 62 130
e 62 133
e 63 68
e 63 76
e 63 78
e 63 80
e 63 82
e 63 90
e 63 101
e 63 102
e 63 103
e 63 108
e 63 109
e 63 112
e 63 115
e 63 119
e 63 122
e 63 127
e 63 137
e 64 68
e 64 70
e 64 72
e 64 73
e 64 74
e 64 77
e 64 83
e 64 90
e 64 97
e 64 104
e 64 110
e 64 111
e 64 132
e 64 135
e 64 136
e 65 73
e 65 75
e 65 76
e 65 77
e 65 78
e 65 81
e 65 83
e 65 108
e 65 109
e 65 110
e 65 111
e 65 112
e 65 116
e 65 117
e 65 120
e 65 123
e 65 125
e 65 138
e 66 73
e 66 81
e 66 83
e 66 84
e 66 85
e 66 86
e 66 87
e 66 88
e 66 97
e 66 105
e 66 107
e 66 110
e 66 111
e 66 113
e 66 116
e 66 117
e 66 120
e 66 122
e 66 123
e 66 124
e 66 125
e 66 134
e 66 136
e 66 138
e 67 74
e 67 90
e 67 137
e 67 139
e 68 70
e 68 73
e 68 74
e 68 91
e 68 97
e 68 103
e 68 104
e 68 116
e 68 117
e 68 119
e 68 120
e 68 127
e 68 128
e 68 132
e 69 75
e 69 76
e 69 77
e 69 78
e 69 79
e 69 83
e 69 89
e 69 108
e 69 110
e 69 111
e 69 112
e 69 115
e 69 122
e 69 137
e 69 139
e 70 80
e 70 90
e 70 91
e 70 95
e 70 96
e 70 97
e 70 100
e 70 102
e 70 117
e 70 120
e 70 126
e 70 130
e 70 132
e 71 89
e 71 91
e 71 115
e 71 122
e 71 135
e 71 136
e 71 137
e 71 139
e 72 75
e 72 77
e 72 79
e 72 82
e 72 89
e 72 91
e 72 102
e 72 110
e 72 111
e 72 112
e 72 127
e 72 128
e 72 133
e 72 135
e 72 139
e 73 80
e 73 83
e 73 90
e 73 98
e 73 114
e 73 122
e 73 124
e 73 136
e 74 80
e 74 90
e 74 93
e 74 115
e 74 123
e 74 124
e 74 125
e 74 129
e 74 135
e 74 136
e 74 137
e 74 138
e 75 76
e 75 77
e 75 78
e 75 81
e 75 83
e 75 84
e 75 85
e 75 86
e 75 87
e 75 88
e 75 89
e 75 93
e 75 95
e 75 99
e 75 102
e 75 106
e 75 108
e 75 109
e 75 110
e 75 111
e 75 112
e 75 113
e 75 116
e 75 117
e 75 121
e 75 132
e 75 134
e 76 77
e 76 78
e 76 81
e 76 83
e 76 84
e 76 85
e 76 86
e 76 87
e 76 88
e 76 90
e 76 93
e 76 95
e 76 99
e 76 102
e 76 106
e 76 110
e 76 111
e 76 112
e 76 113
e 76 116
e 76 117
e 76 121
e 76 128
e 76 132
e 76 134
e 77 78
e 77 81
e 77 83
e 77 84
e 77 85
e 77 86
e 77 87
e 77 88
e 77 89
e 77 93
e 77 95
e 77 99
e 77 101
e 77 106
e 77 108
e 77 109
e 77 110
e 77 112
e 77 113
e 77 114
e 77 116
e 77 117
e 77 119
e 77 121
e 77 122
e 77 132
e 77 134
e 77 135
e 78 81
e 78 83
e 78 84
e 78 85
e 78 86
e 78 87
e 78 88
e 78 89
e 78 90
e 78 93
e 78 95
e 78 99
e 78 102
e 78 106
e 78 108
e 78 110
e 78 111
e 78 113
e 78 116
e 78 117
e 78 121
e 78 132
e 78 134
e 79 81
e 79 82
e 79 84
e 79 85
e 79 86
e 79 87
e 79 106
e 79 113
e 79 114
e 79 116
e 79 117
e 79 120
e 79 122
e 79 123
e 79 125
e 79 128
e 79 133
e 79 136
e 80 92
e 80 93
e 80 94
e 80 95
e 80 96
e 80 97
e 80 101
e 80 104
e 80 115
e 80 118
e 80 119
e 80 123
e 80 124
e 80 128
e 80 132
e 80 135
e 80 138
e 81 83
e 81 84
e 81 85
e 81 86
e 81 87
e 81 88
e 81 92
e 81 93
e 81 94
e 81 95
e 81 96
e 81 97
e 81 98
e 81 99
e 81 108
e 81 109
e 81 110
e 81 111
e 81 112
e 81 113
e 81 116
e 81 117
e 81 118
e 81 120
e 81 123
e 81 124
e 81 125
e 81 138
e 82 102
e 82 108
e 82 114
e 82 116
e 82 117
e 82 122
e 82 133
e 82 137
e 83 84
e 83 85
e 83 86
e 83 87
e 83 88
e 83 89
e 83 93
e 83 95
e 83 99
e 83 101
e 83 106
e 83 108
e 83 109
e 83 110
e 83 111
e 83 112
e 83 113
e 83 114
e 83 117
e 83 119
e 83 121
e 83 122
e 83 132
e 83 133
e 83 134
e 84 85
e 84 86
e 84 87
e 84 88
e 84 95
e 84 96
e 84 98
e 84 99
e 84 108
e 84 109
e 84 110
e 84 111
e 84 112
e 84 113
e 84 116
e 84 117
e 84 120
e 84 123
e 84 124
e 84 125
e 84 126
e 84 138
e 85 86
e 85 87
e 85 88
e 85 94
e 85 95
e 85 96
e 85 97
e 85 98
e 85 99
e 85 108
e 85 109
e 85 110
e 85 111
e 85 112
e 85 113
e 85 116
e 85 117
e 85 120
e 85 123
e 85 124
e 85 125
e 85 138
e 86 87
e 86 88
e 86 90
e 86 91
e 86 95
e 86 96
e 86 98
e 86 99
e 86 108
e 86 109
e 86 110
e 86 111
e 86 112
e 86 113
e 86 116
e 86 117
e 86 120
e 86 123
e 86 124
e 86 125
e 86 126
e 86 138
e 87 88
e 87 90
e 87 91
e 87 95
e 87 96
e 87 98
e 87 99
e 87 108
e 87 109
e 87 110
e 87 111
e 87 112
e 87 113
e 87 116
e 87 117
e 87 120
e 87 123
e 87 124
e 87 125
e 87 126
e 87 138
e 88 90
e 88 91
e 88 95
e 88 96
e 88 98
e 88 108
e 88 109
e 88 110
e 88 111
e 88 112
e 88 113
e 88 116
e 88 117
e 88 120
e 88 123
e 88 124
e 88 125
e 88 126
e 88 138
e 89 100
e 89 102
e 89 106
e 89 108
e 89 109
e 89 110
e 89 111
e 89 112
e 89 115
e 89 120
e 89 121
e 89 122
e 89 123
e 89 124
e 89 125
e 89 126
e 89 133
e 89 136
e 90 100
e 90 104
e 90 108
e 90 109
e 90 112
e 90 115
e 90 132
e 90 134
e 90 136
e 90 139
e 91 97
e 91 100
e 91 101
e 91 104
e 91 126
e 91 134
e 91 139
e 92 102
e 92 105
e 92 107
e 92 116
e 92 117
e 92 120
e 92 124
e 92 132
e 92 135
e 92 139
e 93 105
e 93 107
e 93 108
e 93 109
e 93 110
e 93 111
e 93 112
e 93 116
e 93 117
e 93 120
e 93 123
e 93 124
e 93 125
e 94 102
e 94 105
e 94 107
e 94 116
e 94 117
e 94 120
e 94 124
e 94 126
e 94 130
e 94 135
e 94 139
e 95 104
e 95 105
e 95 108
e 95 109
e 95 110
e 95 111
e 95 112
e 95 113
e 95 115
e 95 116
e 95 117
e 95 120
e 95 122
e 95 123
e 95 124
e 95 125
e 95 129
e 95 134
e 95 135
e 95 136
e 96 104
e 96 105
e 96 113
e 96 130
e 96 134
e 96 135
e 96 139
e 97 98
e 97 99
e 97 101
e 97 104
e 97 128
e 97 132
e 98 99
e 98 105
e 98 107
e 98 113
e 98 116
e 98 117
e 98 120
e 98 122
e 98 123
e 98 125
e 98 134
e 98 136
e 98 138
e 99 105
e 99 107
e 99 108
e 99 109
e 99 110
e 99 111
e 99 112
e 99 113
e 99 116
e 99 117
e 99 120
e 99 123
e 99 124
e 99 125
e 99 134
e 99 138
e 100 104
e 100 139
e 101 110
e 101 111
e 101 115
e 101 122
e 101 136
e 101 137
e 102 104
e 102 109
e 102 112
e 102 118
e 102 135
e 103 115
e 103 119
e 103 123
e 103 136
e 103 138
e 104 117
e 104 120
e 104 126
e 104 130
e 104 132
e 105 116
e 105 117
e 105 118
e 105 120
e 105 123
e 105 124
e 105 125
e 105 126
e 105 130
e 105 138
e 106 108
e 106 109
e 106 110
e 106 111
e 106 112
e 106 121
e 106 122
e 106 125
e 106 137
e 106 139
e 107 116
e 107 117
e 107 118
e 107 120
e 107 123
e 107 124
e 107 125
e 107 130
e 107 138
e 108 110
e 108 111
e 108 112
e 108 113
e 108 116
e 108 117
e 108 121
e 108 128
e 108 132
e 108 134
e 109 110
e 109 111
e 109 113
e 109 116
e 109 117
e 109 121
e 109 128
e 109 132
e 109 134
e 110 112
e 110 113
e 110 114
e 110 116
e 110 117
e 110 119
e 110 121
e 110 122
e 110 132
e 110 134
e 110 135
e 111 112
e 111 113
e 111 114
e 111 116
e 111 117
e 111 119
e 111 121
e 111 122
e 111 132
e 111 133
e 111 134
e 111 135
e 112 113
e 112 116
e 112 117
e 112 121
e 112 132
e 112 134
e 113 116
e 113 117
e 113 120
e 113 123
e 113 124
e 113 125
e 113 126
e 113 134
e 113 138
e 114 116
e 114 117
e 114 123
e 114 137
e 115 121
e 115 123
e 115 129
e 115 131
e 115 133
e 115 135
e 115 136
e 115 138
e 116 118
e 116 119
e 116 127
e 116 130
e 116 134
e 116 137
e 117 118
e 117 119
e 117 127
e 117 134
e 117 137
e 118 120
e 118 124
e 118 132
e 118 135
e 118 139
e 119 124
e 119 125
e 119 138
e 120 124
e 120 126
e 120 129
e 120 134
e 120 138
e 121 122
e 121 125
e 121 138
e 122 133
e 123 129
e 123 134
e 123 135
e 124 134
e 124 135
e 125 127
e 125 129
e 125 134
e 125 135
e 126 134
e 126 135
e 126 139
e 128 139
e 129 135
e 129 136
e 129 137
e 129 138
e 130 134
e 130 135
e 130 137
e 131 136
e 131 137
e 133 135
e 133 136
e 134 138
e 135 136
e 135 138
e 136 137
